26
21 10 16 0 1 4 16 18 12 21 8 8 18 0 7 4 6 9 24 24 11 23 0 2 5 15 20 9 15 14 4 2 1 24 13 16 9 6 4 14 10 11 9 6 2 17 3 22 5 17 1 7 25 0 3 14 23 8 8 5 19 23 12 8 19 1 22 23 3 20 20 15 25 11 12 18 19 15 22 0 21 13 13 19 10 5 7 3 22 15 6 24 16 1 12 18 7 17 10 16 
